+262+283+278+247+297+310+296+303+284+302+271+304+334+284+296+300+311+259+264+290+298+255+274+326+310+321+320+295+297+286+295+279+296+338+283+276+285+300+264+282+257+286+294+324+331+287+362+313+314+277+310+323+258+294+263+291+298+275+251+330+257+264+283+282+296+255+301+291+290+266+263+294+270+285+271+335+291+319+293+308+310+235+297+302+262+330+296+299+305+295+330+302+277+289+304+273+240+288+288+283